c Generated map
c Size: 8 * 8, weights in range: 1 to 10, walls: True, with ratio 0.1
c dim 6 of 10
c
p sp 64 92
c graph contains 64 nodes and 92 arcs
c
a 1 9 7
a 9 1 7
a 1 2 9
a 2 1 9
a 2 10 4
a 10 2 4
a 2 3 1
a 3 2 1
a 3 11 5
a 11 3 5
a 3 4 3
a 4 3 3
a 4 12 5
a 12 4 5
a 4 5 2
a 5 4 2
a 5 6 3
a 6 5 3
a 6 14 9
a 14 6 9
a 6 7 9
a 7 6 9
a 7 15 8
a 15 7 8
a 7 8 10
a 8 7 10
a 8 16 7
a 16 8 7
a 9 17 7
a 17 9 7
a 9 10 6
a 10 9 6
a 10 18 9
a 18 10 9
a 10 11 3
a 11 10 3
a 11 19 8
a 19 11 8
a 11 12 9
a 12 11 9
a 12 20 10
a 20 12 10
a 14 22 7
a 22 14 7
a 14 15 6
a 15 14 6
a 15 23 4
a 23 15 4
a 15 16 1
a 16 15 1
a 16 24 5
a 24 16 5
a 17 25 5
a 25 17 5
a 17 18 6
a 18 17 6
a 18 26 8
a 26 18 8
a 18 19 1
a 19 18 1
a 19 27 1
a 27 19 1
a 19 20 2
a 20 19 2
a 20 28 9
a 28 20 9
a 20 21 2
a 21 20 2
a 21 29 6
a 29 21 6
a 21 22 7
a 22 21 7
a 22 23 8
a 23 22 8
a 23 31 10
a 31 23 10
a 23 24 6
a 24 23 6
a 24 32 7
a 32 24 7
a 25 33 2
a 33 25 2
a 25 26 6
a 26 25 6
a 26 34 1
a 34 26 1
a 26 27 5
a 27 26 5
a 27 35 10
a 35 27 10
a 27 28 4
a 28 27 4
a 28 36 3
a 36 28 3
a 28 29 5
a 29 28 5
a 29 37 5
a 37 29 5
a 31 39 5
a 39 31 5
a 31 32 9
a 32 31 9
a 32 40 5
a 40 32 5
a 33 41 3
a 41 33 3
a 33 34 9
a 34 33 9
a 34 42 1
a 42 34 1
a 34 35 8
a 35 34 8
a 35 43 2
a 43 35 2
a 35 36 4
a 36 35 4
a 36 37 4
a 37 36 4
a 37 45 9
a 45 37 9
a 37 38 2
a 38 37 2
a 38 46 8
a 46 38 8
a 38 39 6
a 39 38 6
a 39 47 1
a 47 39 1
a 39 40 10
a 40 39 10
a 40 48 9
a 48 40 9
a 41 42 10
a 42 41 10
a 42 50 10
a 50 42 10
a 42 43 9
a 43 42 9
a 43 51 5
a 51 43 5
a 45 53 9
a 53 45 9
a 45 46 2
a 46 45 2
a 46 54 5
a 54 46 5
a 46 47 6
a 47 46 6
a 47 55 9
a 55 47 9
a 47 48 6
a 48 47 6
a 48 56 7
a 56 48 7
a 50 51 1
a 51 50 1
a 51 52 1
a 52 51 1
a 52 60 4
a 60 52 4
a 52 53 7
a 53 52 7
a 53 61 4
a 61 53 4
a 53 54 8
a 54 53 8
a 54 62 10
a 62 54 10
a 54 55 3
a 55 54 3
a 55 63 7
a 63 55 7
a 55 56 4
a 56 55 4
a 56 64 3
a 64 56 3
a 60 61 1
a 61 60 1
a 61 62 10
a 62 61 10
a 62 63 6
a 63 62 6
a 63 64 3
a 64 63 3
